20
29	116	78	53	7
4	227	246	13	2
8	331	371	24	44
46	358	128	6	53
15	46	329	2	76
25	273	292	94	59
31	273	80	20	53
38	432	197	52	37
5	9	107	62	72
18	132	112	38	76
29	348	317	14	24
1	140	235	30	82
18	3	1	14	47
8	234	310	88	35
29	69	242	1	73
15	321	124	93	32
39	197	143	66	78
32	363	98	5	43
20	98	221	2	35
24	410	24	14	57
